c FILE /home/rafael/Documents/HappySet/MIHS/inputs/happygen/output/graph_d_regular_k5_p0.5_v50_20241127_082637.txt
c SOURCE This is a d-regular graph formed for the happy graph colouring problem.
c DESCRIPTION It was generated using the problem generator of Rhyd Lewis
c
c GRAPH STATS
c Seed                             = -613179177
c Number of Nodes                  = 50
c Number of colours k              = 5
c Number of pre-assignments        = 25
c Degree of all vertices           = 6
c Density                          = 0.122449
c 
c The degrees of nodes 1 to 50, respectively, are as follows 
c [6, 6, 6, 6, 6, 6, 6, 6, 6, 6, 6, 6, 6, 6, 6, 6, 6, 6, 6, 6, 6, 6, 6, 6, 6, 6, 
c  6, 6, 6, 6, 6, 6, 6, 6, 6, 6, 6, 6, 6, 6, 6, 6, 6, 6, 6, 6, 6, 6, 6, 6] 
c  
p edge 50 150 5
e 1 7
e 1 11
e 1 29
e 1 33
e 1 43
e 1 46
e 2 8
e 2 13
e 2 16
e 2 26
e 2 39
e 2 41
e 3 24
e 3 27
e 3 30
e 3 34
e 3 36
e 3 37
e 4 10
e 4 19
e 4 21
e 4 26
e 4 46
e 4 48
e 5 12
e 5 22
e 5 23
e 5 26
e 5 27
e 5 33
e 6 15
e 6 25
e 6 34
e 6 37
e 6 48
e 6 50
e 7 8
e 7 12
e 7 29
e 7 36
e 7 49
e 8 10
e 8 15
e 8 38
e 8 44
e 9 12
e 9 16
e 9 17
e 9 23
e 9 26
e 9 44
e 10 17
e 10 20
e 10 46
e 10 50
e 11 21
e 11 25
e 11 34
e 11 37
e 11 40
e 12 21
e 12 23
e 12 43
e 13 16
e 13 20
e 13 24
e 13 27
e 13 38
e 14 15
e 14 18
e 14 20
e 14 24
e 14 46
e 14 50
e 15 22
e 15 29
e 15 43
e 16 25
e 16 41
e 16 46
e 17 24
e 17 31
e 17 33
e 17 38
e 18 31
e 18 34
e 18 36
e 18 38
e 18 49
e 19 25
e 19 28
e 19 29
e 19 30
e 19 44
e 20 28
e 20 29
e 20 34
e 21 41
e 21 45
e 21 47
e 22 26
e 22 35
e 22 43
e 22 49
e 23 32
e 23 35
e 23 40
e 24 35
e 24 44
e 25 35
e 25 47
e 26 28
e 27 31
e 27 37
e 27 47
e 28 33
e 28 43
e 28 47
e 29 50
e 30 36
e 30 39
e 30 40
e 30 42
e 31 36
e 31 39
e 31 45
e 32 37
e 32 38
e 32 42
e 32 44
e 32 45
e 33 40
e 33 49
e 34 35
e 35 42
e 36 42
e 37 40
e 38 47
e 39 45
e 39 47
e 39 49
e 40 48
e 41 42
e 41 45
e 41 48
e 42 49
e 43 46
e 44 48
e 45 50
e 48 50
n 1 3
n 5 1
n 9 1
n 10 4
n 13 2
n 15 1
n 18 1
n 21 2
n 22 1
n 23 1
n 24 2
n 25 5
n 26 1
n 28 1
n 30 1
n 31 1
n 32 1
n 34 1
n 36 1
n 37 1
n 39 1
n 40 1
n 42 1
n 49 1
n 50 4
